NAME : instances/clustered-mixed-tsp/instance-47.tsp
COMMENT : No Comment
TYPE : TSP
DIMENSION: 52
EDGE_WEIGHT_TYPE : EUC_2D
NODE_COORD_SECTION
1 6 265 
2 308 374 
3 610 220 
4 553 258 
5 421 614 
6 151 150 
7 610 296 
8 960 429 
9 1036 486 
10 505 103 
11 572 277 
12 204 146 
13 172 337 
14 821 581 
15 346 554 
16 459 728 
17 270 611 
18 648 315 
19 408 1013 
20 324 318 
21 441 298 
22 270 298 
23 903 448 
24 591 258 
25 365 611 
26 629 201 
27 503 1013 
28 426 443 
29 1017 372 
30 389 918 
31 998 524 
32 924 696 
33 515 258 
34 318 -70 
35 346 469 
36 403 668 
37 426 557 
38 619 -68 
39 307 709 
40 783 619 
41 515 220 
42 543 65 
43 388 576 
44 629 239 
45 229 337 
46 120 132 
47 327 805 
48 101 246 
49 365 317 
50 147 -32 
51 979 372 
52 1055 543 
EOF
